(declare-fun temp12896_1 () (_ BitVec 64))
(declare-fun temp12896_2 () (_ BitVec 64))
(declare-fun var73602 () (_ BitVec 64))
(declare-fun k!0 () Bool)
(declare-fun ARGNAME_x_NAMEEND_DIM () (_ BitVec 64))
(declare-fun temp12896_3 () (_ BitVec 64))
(declare-fun var66250 () (_ BitVec 64))
(declare-fun temp12896_4 () (_ BitVec 64))
(declare-fun temp12896_5 () (_ BitVec 64))
(declare-fun ARGNAME_x_NAMEEND_DIMSIZE () (Array (_ BitVec 64) (_ BitVec 64)))
(declare-fun temp12896_6 () (_ BitVec 64))
(declare-fun temp12896_7 () (_ BitVec 64))
(declare-fun temp12896_8 () (_ BitVec 64))
(declare-fun temp12896_9 () (_ BitVec 64))
(declare-fun temp12896_10 () (_ BitVec 64))
(declare-fun temp12896_11 () (_ BitVec 64))
(declare-fun temp12896_12 () (_ BitVec 64))
(declare-fun temp12896_13 () (_ BitVec 64))
(declare-fun temp12896_14 () (_ BitVec 64))
(declare-fun temp12896_15 () (_ BitVec 64))
(declare-fun temp12896_16 () (_ BitVec 64))
(declare-fun temp12896_17 () (_ BitVec 64))
(declare-fun temp12896_18 () (_ BitVec 64))
(declare-fun temp12896_19 () (_ BitVec 64))
(declare-fun temp12896_20 () (_ BitVec 64))
(declare-fun temp12896_21 () (_ BitVec 64))
(declare-fun temp12896_22 () (_ BitVec 64))
(declare-fun temp12896_23 () (_ BitVec 64))
(declare-fun temp12896_24 () (_ BitVec 64))
(declare-fun var73613 () (_ BitVec 64))
(declare-fun temp12896_25 () (_ BitVec 64))
(declare-fun temp12896_26 () (_ BitVec 64))
(declare-fun temp12896_27 () (_ BitVec 64))
(declare-fun temp12896_28 () (_ BitVec 64))
(declare-fun var73640 () (_ BitVec 64))
(declare-fun temp12896_30 () (_ BitVec 64))
(declare-fun temp12896_29 () (_ BitVec 64))
(declare-fun temp12896_31 () (_ BitVec 64))
(declare-fun var467142 () (_ BitVec 64))
(declare-fun temp12896_33 () (_ BitVec 64))
(declare-fun temp12896_32 () (_ BitVec 64))
(declare-fun temp12896_34 () (_ BitVec 64))
(declare-fun var1384689 () (_ BitVec 64))
(declare-fun temp12896_35 () (_ BitVec 64))
(declare-fun var1384693 () (_ BitVec 64))
(declare-fun temp12896_36 () (_ BitVec 64))
(declare-fun var1384723 () (_ BitVec 64))
(declare-fun temp12896_37 () (_ BitVec 64))
(declare-fun temp12896_39 () (_ BitVec 64))
(declare-fun temp12896_38 () (_ BitVec 64))
(declare-fun temp12896_40 () (_ BitVec 64))
(declare-fun var2040049 () (_ BitVec 64))
(declare-fun temp12896_41 () (_ BitVec 64))
(declare-fun var2040053 () (_ BitVec 64))
(declare-fun temp12896_43 () (_ BitVec 64))
(declare-fun temp12896_42 () (_ BitVec 64))
(declare-fun temp12896_44 () (_ BitVec 64))
(declare-fun var2629873 () (_ BitVec 64))
(declare-fun temp12896_45 () (_ BitVec 64))
(declare-fun var2629877 () (_ BitVec 64))
(declare-fun temp12896_46 () (_ BitVec 64))
(declare-fun var2629907 () (_ BitVec 64))
(declare-fun temp12896_47 () (_ BitVec 64))
(declare-fun var2629919 () (_ BitVec 64))
(declare-fun temp12896_48 () (_ BitVec 64))
(declare-fun temp12896_49 () (_ BitVec 64))
(declare-fun temp12896_50 () (_ BitVec 64))
(declare-fun ARGNAME_increasing_NAMEEND () (_ BitVec 64))
(assert (= temp12896_1 #x0000000000000001))
(assert (= var73602
   (ite (= ARGNAME_x_NAMEEND_DIM temp12896_1)
        #x0000000000000001
        #x0000000000000000)))
(assert (= temp12896_2 #x0000000000000001))
(assert (= var73602 temp12896_2))
(assert (= temp12896_3 #x0000000000000000))
(assert (= var66250 temp12896_3))
(assert (= temp12896_4 #x0000000000000000))
(assert (= temp12896_5 temp12896_4))
(assert (= temp12896_6 (select ARGNAME_x_NAMEEND_DIMSIZE temp12896_5)))
(assert (= temp12896_7 #x0000000000000001))
(assert (= temp12896_8 temp12896_7))
(assert (= temp12896_9 (select ARGNAME_x_NAMEEND_DIMSIZE temp12896_8)))
(assert (= temp12896_10 #x0000000000000002))
(assert (= temp12896_11 temp12896_10))
(assert (= temp12896_12 (select ARGNAME_x_NAMEEND_DIMSIZE temp12896_11)))
(assert (= temp12896_13 #x0000000000000003))
(assert (= temp12896_14 temp12896_13))
(assert (= temp12896_15 (select ARGNAME_x_NAMEEND_DIMSIZE temp12896_14)))
(assert (= temp12896_16 #x0000000000000004))
(assert (= temp12896_17 temp12896_16))
(assert (= temp12896_18 (select ARGNAME_x_NAMEEND_DIMSIZE temp12896_17)))
(assert (= temp12896_19 #x0000000000000005))
(assert (= temp12896_20 temp12896_19))
(assert (= temp12896_21 (select ARGNAME_x_NAMEEND_DIMSIZE temp12896_20)))
(assert (= temp12896_22 #x0000000000000000))
(assert (= temp12896_23
   (ite (bvslt var66250 temp12896_22)
        (bvadd ARGNAME_x_NAMEEND_DIM var66250)
        var66250)))
(assert (= temp12896_24 (select ARGNAME_x_NAMEEND_DIMSIZE temp12896_23)))
(assert (= var73613 temp12896_24))
(assert (bvslt (ite (bvslt var66250 temp12896_22)
            (bvadd ARGNAME_x_NAMEEND_DIM var66250)
            var66250)
       ARGNAME_x_NAMEEND_DIM))
(assert (= temp12896_25 #x0000000000000000))
(assert (= var66250 temp12896_25))
(assert (= temp12896_26 #x0000000000000000))
(assert (= temp12896_27
   (ite (bvslt var66250 temp12896_26)
        (bvadd ARGNAME_x_NAMEEND_DIM var66250)
        var66250)))
(assert (= temp12896_28 (select ARGNAME_x_NAMEEND_DIMSIZE temp12896_27)))
(assert (= var73640 temp12896_28))
(assert (bvslt (ite (bvslt var66250 temp12896_26)
            (bvadd ARGNAME_x_NAMEEND_DIM var66250)
            var66250)
       ARGNAME_x_NAMEEND_DIM))
(assert (= temp12896_30 #x0000000000000002))
(assert (= temp12896_29 temp12896_30))
(assert (= temp12896_31 #x0000000000000004))
(assert (= var467142 temp12896_31))
(assert (= temp12896_33 #x0000000000000001))
(assert (= temp12896_32 temp12896_33))
(assert (= temp12896_34 #x0000000000000001))
(assert (= var1384689 temp12896_34))
(assert (= temp12896_35 #x0000000000000001))
(assert (= var1384693 temp12896_35))
(assert (= temp12896_36 #x0000000000000000))
(assert (= var1384723 temp12896_36))
(assert (= temp12896_37 #x0000000000000000))
(assert (= var1384723 temp12896_37))
(assert (= temp12896_39 #x0000000000000001))
(assert (= temp12896_38 temp12896_39))
(assert (= temp12896_40 #x0000000000000001))
(assert (= var2040049 temp12896_40))
(assert (= temp12896_41 #x0000000000000001))
(assert (= var2040053 temp12896_41))
(assert (= temp12896_43 #x0000000000000001))
(assert (= temp12896_42 temp12896_43))
(assert (= temp12896_44 #x0000000000000001))
(assert (= var2629873 temp12896_44))
(assert (= temp12896_45 #x0000000000000001))
(assert (= var2629877 temp12896_45))
(assert (= temp12896_46 #x0000000000000000))
(assert (= var2629907 temp12896_46))
(assert (= temp12896_47 #x0000000000000000))
(assert (= var2629919 temp12896_47))
(assert (= temp12896_48 #x0000000000000000))
(assert (= var2629919 temp12896_48))
(assert (= temp12896_49 #x0000000000000000))
(assert (= var2629907 temp12896_49))
(assert (= temp12896_50 #x0000000000000001))
(assert (= ARGNAME_increasing_NAMEEND temp12896_50))
(model-add temp12896_1 () (_ BitVec 64) #x0000000000000001)
(model-add temp12896_2 () (_ BitVec 64) #x0000000000000001)
(model-add var73602 () (_ BitVec 64) #x0000000000000001)
(model-del k!0)
(model-add ARGNAME_x_NAMEEND_DIM
           ()
           (_ BitVec 64)
           (ite k!0 #x0000000000000001 (bvnot #x0000000000000001)))



